p cnf 21 17
-1 16 0 
-2 -3 16 0 
-4 6 17 -18 -19 -20 -21 0 
-5 16 0 
-6 4 18 -17 -19 -20 -21 0 
-7 -2 16 0 
-8 9 18 -17 -19 -20 -21 0 
-9 8 18 -17 -19 -20 -21 0 
-2 -10 16 0 
-10 16 0 
-11 15 -8 9 -12 -4 6 16 0 
-8 9 19 -17 -18 -20 -21 0 
-6 4 20 -17 -18 -19 -21 0 
-13 14 16 0 
-14 13 16 0 
-9 8 21 -17 -18 -19 -20 0 
-15 11 16 0 
